#Intialization
units       real 
dimension   3
boundary    p p p
atom_style  full 

#reading file 

read_data   final.data 

#defining force fields
pair_style      lj/cut 10.0
bond_style      harmonic
angle_style     harmonic

pair_coeff      1 1  0.056  3.2 
pair_coeff      2 2  0.0    0.0 ##have to specify interactions with water-water, water-carbon, carbon=-carbon
pair_coeff      3 3  0.1553 3.166
pair_coeff      1 2  0.0    0.0
pair_coeff      1 3  0.0    0.0
pair_coeff      2 3  0.0    0.0

bond_coeff      1 450.0 1.0  

#grouping
group           water   type 2  3
group           surface type 1

#maintaining conditions 
fix 1 all nvt  temp 295.0  295.0  100.0
fix 2 water shake 0.0001 20 0 b 1

#output setting 
thermo 10
thermo_style custom step temp epair emol etotal press
#dumping file 

dump 1 all atom 100 smooth.lammpstrj
timestep 1.0
run 1000