# Initialization
units       real 
dimension   3
boundary    p p p
atom_style  full 

# Reading file 
read_data   final.data 

# Defining force fields
bond_style      harmonic
angle_style     harmonic

pair_style lj/cut 10.0

# Water-Carbon 
pair_coeff 1 3 0.114 3.19  
pair_coeff 2 3 0.0 0.0     

# Water-Water 
pair_coeff 1 1 0.1553 3.166 
pair_coeff 2 2 0.0 0.0      
pair_coeff 1 2 0.0 0.0      

# Carbon-Carbon interaction
pair_coeff 3 3 0.055 3.40

# Bond coefficients
bond_coeff 1 450.0 1.0  

# Grouping
group water type 2 3
group surface type 1

# Maintaining conditions 
fix 1 all nvt temp 295.0 295.0 100.0
fix 2 water shake 0.0001 20 0 b 1

# Energy minimization
minimize 1.0e-4 1.0e-6 100 1000

# Output setting 
thermo 100
thermo_style custom step temp epair emol etotal press

# Dumping file 
dump 1 all atom 500 smooth_1.lammpstrj

timestep 1.0
run 100 
